% RUNS ON flatzinc
% RUNS ON fzn_fd_canon
% RUNS ON fzn_fdlp_canon

var 0..3: x1 :: output_var;
var set of 1..2: x2 :: output_var;
var set of 1..2: x3 :: output_var;
var set of 0..3: x4 :: output_var;
constraint array_var_set_element(1, [{1}, {2}, {3}], {1});
constraint array_var_set_element(x1, [x2, x3], x4);
solve satisfy;
